19 51 30 9 88 66 43 21 97 73 48 24 98 71 44 16 89 60 31 1 70 38 6 75 39 4 68 33 93 55 14 76 32 86 45 95 50 99 49 92 40 82 25 64 5 41 74 7 34 61 81 2 18 29 46 53 54 47 35 20 8 83 57 12 69 13 59 84 94 3 96 78 42 80 22 27 0 77 11 15 62 58 10 23 65 90 52 17 85 67 79 87 63 37 26 91 28 36 56 72 

